9 265
16 138
17 134
22 170
34 268
48 175
29 141
49 271
30 127
6 119
35 277
39 293
47 165
28 123
52 174
41 160
56 144
23 266
14 131
12 280
1 102
38 287
33 270
2 113
55 137
5 101
21 158
13 115
15 126
11 116
40 146
26 281
32 145
7 109
27 279
19 142
8 108
45 269
37 273
36 151
25 114
42 128
43 139
31 140
20 150
10 275
53 267
18 129
54 217
4 135
3 124
24 276
50 154
51 163
44 149
46 147